(set-logic HORN)
(set-info :source |
    Benchmark: C_VC
    Output by Princess (http://www.philipp.ruemmer.org/princess.shtml)
|)
(set-info :status sat)
(declare-fun inv_main10 (Int Int Int Int) Bool)
(declare-fun inv_main16 (Int Int Int Int Int) Bool)
(declare-fun inv_main3 (Int Int Int Int) Bool)
(assert (forall ((var0 Int) (var1 Int) (var2 Int)) (or (not (and (and (<= 0 var2) (<= 0 var1)) (<= 0 var0))) (inv_main3 20000001 var2 var1 var0))))
(assert (forall ((var0 Int) (var1 Int) (var2 Int) (var3 Int) (var4 Int)) (or (not (and (inv_main3 var4 var3 var2 var1) (and (<= 0 (+ var4 (* (- 1) var0))) (<= 0 var0)))) (inv_main10 var4 var0 0 var0))))
(assert (forall ((var0 Int) (var1 Int) (var2 Int) (var3 Int)) (or (not (and (inv_main10 var3 var2 var1 var0) (<= 0 (+ (+ var2 (* (- 1) var1)) (- 1))))) (inv_main10 var3 var2 (+ var1 3) (+ var0 (- 1))))))
(assert (forall ((var0 Int) (var1 Int) (var2 Int) (var3 Int) (var4 Int) (var5 Int)) (or (not (and (inv_main16 var4 var3 var2 var1 var0) (and (and (and (and (<= 0 (+ (+ 3 (* (- 1) (+ var3 (* (- 3) var5)))) (- 1))) (<= 0 (+ (+ 3 (* 1 (+ var3 (* (- 3) var5)))) (- 1)))) (or (not (<= 0 (+ (+ var3 (* (- 3) var5)) (- 1)))) (<= 0 (+ var3 (- 1))))) (or (not (<= 0 (+ (* (- 1) (+ var3 (* (- 3) var5))) (- 1)))) (<= 0 (+ (* (- 1) var3) (- 1))))) (<= 0 (+ (+ var5 (* (- 1) (+ var0 1))) (- 1)))))) (inv_main16 var4 var3 var2 (+ var1 (- 1)) (+ var0 1)))))
(assert (forall ((var0 Int) (var1 Int) (var2 Int) (var3 Int) (var4 Int)) (or (not (and (inv_main10 var3 var2 var1 var0) (and (and (and (and (and (<= 0 (+ (+ 3 (* (- 1) (+ var2 (* (- 3) var4)))) (- 1))) (<= 0 (+ (+ 3 (* 1 (+ var2 (* (- 3) var4)))) (- 1)))) (or (not (<= 0 (+ (+ var2 (* (- 3) var4)) (- 1)))) (<= 0 (+ var2 (- 1))))) (or (not (<= 0 (+ (* (- 1) (+ var2 (* (- 3) var4))) (- 1)))) (<= 0 (+ (* (- 1) var2) (- 1))))) (<= 0 (+ var4 (- 1)))) (not (<= 0 (+ (+ var2 (* (- 1) var1)) (- 1))))))) (inv_main16 var3 var2 var1 var0 0))))
(assert (forall ((var0 Int) (var1 Int) (var2 Int) (var3 Int) (var4 Int)) (not (and (inv_main16 var4 var3 var2 var1 var0) (not (<= 0 (+ var1 (- 1))))))))
(check-sat)
